treewidth/data/TutteCoxeterGraph.gr
p tw 30 45
1 2
1 10
1 23
2 13
2 16
13 24
13 30
24 25
24 20
25 26
25 6
26 27
26 11
27 28
27 17
28 29
28 22
29 30
29 8
30 3
3 4
3 12
4 5
4 18
5 6
5 23
6 7
7 8
7 15
8 9
9 10
9 19
10 11
11 12
12 14
14 15
14 21
15 16
16 17
17 18
18 19
19 20
20 21
21 22
22 23
