treewidth/data/TutteCoxeterGraph.td
c width = 8, time = 0.791956
s td 12 9 30
b 1 2 3 4 11 15 19 22 25 29
b 2 2 4 10 11 15 19 22 25 29
b 3 2 4 6 10 15 19 22 25 29
b 4 1 2 4 5 6 10 22 23
b 5 6 7 8 9 10 15 19 29
b 6 2 3 11 15 19 20 22 25 29
b 7 3 11 12 14 15 20 21 22
b 8 2 3 13 20 24 25 29 30
b 9 2 4 11 15 19 22 25 27 29
b 10 2 4 15 16 17 18 19 27
b 11 11 25 26 27
b 12 22 27 28 29
3 4
3 5
2 3
1 2
6 7
6 8
1 6
9 10
9 11
9 12
1 9
